# Solution for model recoveryProblem_model
# Objective value = 89
_r[290970112004035,Do_nothing,Do_nothing] 1
_r[290970112004035,Do_nothing,Recover] 0
_r[290970112004035,R1,Do_nothing] 0
_r[290970112004035,R1,Recover] 0
_r[290970112004035,R2,Do_nothing] 0
_r[290970112004035,R2,Recover] 0
_r[290970112004035,R3,Do_nothing] 0
_r[290970112004035,R3,Recover] 0
_r[290970112004038,Do_nothing,Do_nothing] 1
_r[290970112004038,Do_nothing,Recover] 0
_r[290970112004038,R1,Do_nothing] 0
_r[290970112004038,R1,Recover] 0
_r[290970112004038,R2,Do_nothing] 0
_r[290970112004038,R2,Recover] 0
_r[290970112004038,R3,Do_nothing] 0
_r[290970112004038,R3,Recover] 0
_r[290970107002023,Do_nothing,Do_nothing] 1
_r[290970107002023,Do_nothing,Recover] 0
_r[290970107002023,R1,Do_nothing] 0
_r[290970107002023,R1,Recover] 0
_r[290970107002023,R2,Do_nothing] 0
_r[290970107002023,R2,Recover] 0
_r[290970107002023,R3,Do_nothing] 0
_r[290970107002023,R3,Recover] 0
_r[290970107002022,Do_nothing,Do_nothing] 1
_r[290970107002022,Do_nothing,Recover] 0
_r[290970107002022,R1,Do_nothing] 0
_r[290970107002022,R1,Recover] 0
_r[290970107002022,R2,Do_nothing] 0
_r[290970107002022,R2,Recover] 0
_r[290970107002022,R3,Do_nothing] 0
_r[290970107002022,R3,Recover] 0
_r[291450205022018,Do_nothing,Do_nothing] 1
_r[291450205022018,Do_nothing,Recover] 0
_r[291450205022018,R1,Do_nothing] 0
_r[291450205022018,R1,Recover] 0
_r[291450205022018,R2,Do_nothing] 0
_r[291450205022018,R2,Recover] 0
_r[291450205022018,R3,Do_nothing] 0
_r[291450205022018,R3,Recover] 0
_r[290970101002004,Do_nothing,Do_nothing] 1
_r[290970101002004,Do_nothing,Recover] 0
_r[290970101002004,R1,Do_nothing] 0
_r[290970101002004,R1,Recover] 0
_r[290970101002004,R2,Do_nothing] 0
_r[290970101002004,R2,Recover] 0
_r[290970101002004,R3,Do_nothing] 0
_r[290970101002004,R3,Recover] 0
_r[290970103001034,Do_nothing,Do_nothing] 1
_r[290970103001034,Do_nothing,Recover] 0
_r[290970103001034,R1,Do_nothing] 0
_r[290970103001034,R1,Recover] 0
_r[290970103001034,R2,Do_nothing] 0
_r[290970103001034,R2,Recover] 0
_r[290970103001034,R3,Do_nothing] 0
_r[290970103001034,R3,Recover] 0
_r[290970101004032,Do_nothing,Do_nothing] 1
_r[290970101004032,Do_nothing,Recover] 0
_r[290970101004032,R1,Do_nothing] 0
_r[290970101004032,R1,Recover] 0
_r[290970101004032,R2,Do_nothing] 0
_r[290970101004032,R2,Recover] 0
_r[290970101004032,R3,Do_nothing] 0
_r[290970101004032,R3,Recover] 0
_r[290970106006020,Do_nothing,Do_nothing] 1
_r[290970106006020,Do_nothing,Recover] 0
_r[290970106006020,R1,Do_nothing] 0
_r[290970106006020,R1,Recover] 0
_r[290970106006020,R2,Do_nothing] 0
_r[290970106006020,R2,Recover] 0
_r[290970106006020,R3,Do_nothing] 0
_r[290970106006020,R3,Recover] 0
_r[290970104001042,Do_nothing,Do_nothing] 1
_r[290970104001042,Do_nothing,Recover] 0
_r[290970104001042,R1,Do_nothing] 0
_r[290970104001042,R1,Recover] 0
_r[290970104001042,R2,Do_nothing] 0
_r[290970104001042,R2,Recover] 0
_r[290970104001042,R3,Do_nothing] 0
_r[290970104001042,R3,Recover] 0
